\ENCODING=ISO-8859-1
\Problem name: IloCplex

Minimize
 obj1: 24 X#1 + 58 X#2 + 44 X#3 + 26 X#4 + 50 X#5 + 4 X#6 + 38 X#8 + 6 X#9
       + 50 X#10 + 12 X#11 + 58 X#12 + 38 X#13 + 42 X#15 + 46 X#16 + 56 X#17
       + 44 X#18 + 6 X#19 + 42 X#20 + 8 X#22 + 10 X#23 + 26 X#24 + 50 X#25
       + 46 X#26 + 8 X#27 + 32 X#29 + 48 X#30 + 12 X#31 + 50 X#32 + 10 X#33
       + 32 X#34
Subject To
 _Entradas_node0#0: X#0 + X#1 + X#2 + X#3 + X#4 + X#5  = 1
 _Entradas_node1#1: X#6 + X#7 + X#8 + X#9 + X#10 + X#11  = 1
 _Entradas_node2#2: X#12 + X#13 + X#14 + X#15 + X#16 + X#17  = 1
 _Entradas_node3#3: X#18 + X#19 + X#20 + X#21 + X#22 + X#23  = 1
 _Entradas_node4#4: X#24 + X#25 + X#26 + X#27 + X#28 + X#29  = 1
 _Entradas_node5#5: X#30 + X#31 + X#32 + X#33 + X#34 + X#35  = 1
 Saidas_node0#6:    X#0 + X#1 + X#2 + X#3 + X#4 + X#5  = 1
 Saidas_node1#7:    X#6 + X#7 + X#8 + X#9 + X#10 + X#11  = 1
 Saidas_node2#8:    X#12 + X#13 + X#14 + X#15 + X#16 + X#17  = 1
 Saidas_node3#9:    X#18 + X#19 + X#20 + X#21 + X#22 + X#23  = 1
 Saidas_node4#10:   X#24 + X#25 + X#26 + X#27 + X#28 + X#29  = 1
 Saidas_node5#11:   X#30 + X#31 + X#32 + X#33 + X#34 + X#35  = 1
 c13#12:            X#0 + X#7 + X#14 + X#21 + X#28 + X#35 <= 0
 c14#13:            6 X#7 <= 5
 c15#14:            6 X#13 + x37#36 - x38#37 <= 5
 c16#15:            6 X#19 + x37#36 - x39#38 <= 5
 c17#16:            6 X#25 + x37#36 - x40#39 <= 5
 c18#17:            6 X#31 + x37#36 - x41#40 <= 5
 c19#18:            6 X#8 - x37#36 + x38#37 <= 5
 c20#19:            6 X#14 <= 5
 c21#20:            6 X#20 + x38#37 - x39#38 <= 5
 c22#21:            6 X#26 + x38#37 - x40#39 <= 5
 c23#22:            6 X#32 + x38#37 - x41#40 <= 5
 c24#23:            6 X#9 - x37#36 + x39#38 <= 5
 c25#24:            6 X#15 - x38#37 + x39#38 <= 5
 c26#25:            6 X#21 <= 5
 c27#26:            6 X#27 + x39#38 - x40#39 <= 5
 c28#27:            6 X#33 + x39#38 - x41#40 <= 5
 c29#28:            6 X#10 - x37#36 + x40#39 <= 5
 c30#29:            6 X#16 - x38#37 + x40#39 <= 5
 c31#30:            6 X#22 - x39#38 + x40#39 <= 5
 c32#31:            6 X#28 <= 5
 c33#32:            6 X#34 + x40#39 - x41#40 <= 5
 c34#33:            6 X#11 - x37#36 + x41#40 <= 5
 c35#34:            6 X#17 - x38#37 + x41#40 <= 5
 c36#35:            6 X#23 - x39#38 + x41#40 <= 5
 c37#36:            6 X#29 - x40#39 + x41#40 <= 5
 c38#37:            6 X#35 <= 5
Bounds
 0 <= X#0 <= 1
 0 <= X#1 <= 1
 0 <= X#2 <= 1
 0 <= X#3 <= 1
 0 <= X#4 <= 1
 0 <= X#5 <= 1
 0 <= X#6 <= 1
 0 <= X#7 <= 1
 0 <= X#8 <= 1
 0 <= X#9 <= 1
 0 <= X#10 <= 1
 0 <= X#11 <= 1
 0 <= X#12 <= 1
 0 <= X#13 <= 1
 0 <= X#14 <= 1
 0 <= X#15 <= 1
 0 <= X#16 <= 1
 0 <= X#17 <= 1
 0 <= X#18 <= 1
 0 <= X#19 <= 1
 0 <= X#20 <= 1
 0 <= X#21 <= 1
 0 <= X#22 <= 1
 0 <= X#23 <= 1
 0 <= X#24 <= 1
 0 <= X#25 <= 1
 0 <= X#26 <= 1
 0 <= X#27 <= 1
 0 <= X#28 <= 1
 0 <= X#29 <= 1
 0 <= X#30 <= 1
 0 <= X#31 <= 1
 0 <= X#32 <= 1
 0 <= X#33 <= 1
 0 <= X#34 <= 1
 0 <= X#35 <= 1
 2 <= x37#36 <= 6
 2 <= x38#37 <= 6
 2 <= x39#38 <= 6
 2 <= x40#39 <= 6
 2 <= x41#40 <= 6
Binaries
 X#0  X#1  X#2  X#3  X#4  X#5  X#6  X#7  X#8  X#9  X#10  X#11  X#12  X#13 
 X#14  X#15  X#16  X#17  X#18  X#19  X#20  X#21  X#22  X#23  X#24  X#25  X#26 
 X#27  X#28  X#29  X#30  X#31  X#32  X#33  X#34  X#35 
Generals
 x37#36  x38#37  x39#38  x40#39  x41#40 
End
